28, 1207
2007, 4500
2287, 2755
1826, 2857
2017, 1420
1222, 3300
2273, 4584
1163, 1329
1988, 3790
1115, 3352
1950, 3216
1193, 2660
1397, 1744
2307, 3214
575, 2666
798, 2138
1790, 1464
612, 4333
1688, 1031
2405, 1607
1595, 1205
2261, 4981
2493, 2807
2221, 1887
544, 1285
881, 2026
2356, 1295
539, 2702
2043, 4660